 ! --------------------------------------------------- CP Optimizer 22.1.1.0 --
 ! Satisfiability problem - 61000 variables, 815455 constraints
 ! Presolve      : 37500 extractables eliminated
 ! TimeLimit            = 3600
 ! Workers              = 1
 ! Initial process time : 7.00s (6.98s extraction + 0.03s propagation)
 !  . Log search space  : 624788.7 (before), 624788.7 (after)
 !  . Memory usage      : 475.5 MB (before), 475.5 MB (after)
 ! Using sequential search.
 ! ----------------------------------------------------------------------------
 !               Branches  Non-fixed            Branch decision
                     1099      60231        F          presenceOf(copy_bus_parking:45_0)
                     2244      58669        F          presenceOf(copy_trips:16_0)
                     3000      50868                   presenceOf(copy_bus_parking:29_342)
                     4000      39497            245  = endOf(start_parking:10)
                     5000      34602                   presenceOf(copy_trips:9_122)
                     6000      25339        F          presenceOf(copy_bus_parking:21_365)
                     7000      38572                   presenceOf(copy_lane_parking:4_335)
                     8000      38569                   presenceOf(copy_lane_parking:5_307)
                     9000      38563                   presenceOf(copy_lane_parking:6_87)
                    10000      38554                   presenceOf(copy_lane_parking:3_332)
                    11000      30806                   presenceOf(copy_lane_parking:3_7)
                    12000      38563                  !presenceOf(copy_bus_parking:47_369)
                    13000      38557                  !presenceOf(copy_bus_parking:0_369)
                    14000      38569                   presenceOf(copy_lane_parking:7_83)
                    15000      38560        F         !presenceOf(copy_trips:48_369)
                    16000      24754                  !presenceOf(copy_trips:30_59)
                    17000      24754                  !presenceOf(copy_bus_parking:11_371)
                    18000      38569                   presenceOf(copy_trips:28_78)
                    19000      41383                  !presenceOf(copy_trips:42_14)
                    20000      41386                  !presenceOf(copy_trips:37_14)
 ! Time = 51.81s, Average fail depth = 469, Memory usage = 1.8 GB
 !               Branches  Non-fixed            Branch decision
                    21000      41392                  !presenceOf(copy_trips:2_14)
                    22000      41436                  !presenceOf(copy_bus_parking:4_52)
                    23000      49893                   presenceOf(copy_lane_parking:4_257)
                    24000      38563            245 != endOf(start_parking:25)
                    25000      41469                  !presenceOf(copy_trips:15_35)
                    26000      38569                  !presenceOf(copy_bus_parking:39_371)
                    27000      34887                   presenceOf(copy_bus_parking:29_10)
                    28000      34886        F          presenceOf(copy_bus_parking:23_7)
                    29000      38578        F          presenceOf(copy_bus_parking:49_374)
                    30000      38560        F          presenceOf(copy_bus_parking:0_374)
                    31000      38557        F          presenceOf(copy_trips:43_374)
                    32000      38563                   presenceOf(copy_trips:6_374)
                    33000      38563        F          presenceOf(copy_trips:41_374)
                    34000      38563                   presenceOf(copy_lane_parking:7_301)
                    35000      38536        F          presenceOf(copy_trips:19_369)
                    36000      38539        F          presenceOf(copy_trips:26_369)
                    37000      38563        F          presenceOf(copy_trips:14_374)
                    38000      38569                   presenceOf(copy_lane_parking:7_314)
                    39000      24743                   presenceOf(copy_lane_parking:4_93)
                    40000      41946                  !presenceOf(copy_trips:5_65)
 ! Time = 95.60s, Average fail depth = 470, Memory usage = 1.8 GB
 !               Branches  Non-fixed            Branch decision
                    41000      38554                  !presenceOf(copy_trips:9_374)
                    42000      38554                  !presenceOf(copy_trips:41_374)
                    43000      38557        F          presenceOf(copy_bus_parking:45_371)
                    44000      38557                   presenceOf(copy_lane_parking:3_93)
                    45000      20639        F         !presenceOf(copy_trips:9_252)
                    46000      20639                  !presenceOf(copy_bus_parking:22_5)
                    47000      36515                  !presenceOf(copy_bus_parking:33_5)
                    48000      36515                  !presenceOf(copy_bus_parking:3_5)
                    49000      36515                  !presenceOf(copy_bus_parking:3_5)
                    50000      36515                   presenceOf(copy_trips:32_35)
                    51000      48635        F          presenceOf(copy_trips:21_57)
                    52000      41015        F          presenceOf(copy_trips:24_56)
                    53000      41015                  !presenceOf(copy_trips:30_14)
                    54000      40936                  !presenceOf(copy_trips:1_14)
                    55000      41036                  !presenceOf(copy_trips:3_14)
                    56000      41036        F          presenceOf(copy_trips:27_56)
                    57000      41015        F          presenceOf(copy_trips:9_56)
                    58000      41019                  !presenceOf(copy_trips:17_14)
                    59000      41156        F          presenceOf(copy_trips:37_56)
                    60000      41156        F          presenceOf(copy_trips:38_56)
 ! Time = 139.47s, Average fail depth = 474, Memory usage = 1.8 GB
 !               Branches  Non-fixed            Branch decision
                    61000      41074                  !presenceOf(copy_trips:4_14)
                    62000      41174                  !presenceOf(copy_trips:36_14)
                    63000      41174        F          presenceOf(copy_trips:25_56)
                    64000      41153                  !presenceOf(copy_bus_parking:4_30)
                    65000      41153                  !presenceOf(copy_bus_parking:21_14)
                    66000      41734                  !presenceOf(copy_bus_parking:0_1)
                    67000      41121        F         !presenceOf(copy_bus_parking:1_0)
                    68000      56023                   presenceOf(copy_lane_parking:2_23)
                    69000      38572                   presenceOf(copy_lane_parking:9_275)
                    70000      38572                   presenceOf(copy_bus_parking:40_6)
                    71000      41937                   presenceOf(copy_lane_parking:9_362)
                    72000      23117        F          presenceOf(copy_trips:35_0)
                    73000      38788                  !presenceOf(copy_trips:21_369)
                    74000      38788        F          presenceOf(copy_trips:40_0)
                    75000      52599        F          presenceOf(copy_bus_parking:0_0)
                    76000      55049                  !presenceOf(copy_trips:36_0)
                    77000      41589                  !presenceOf(copy_bus_parking:22_19)
                    78000      41326        F          presenceOf(copy_trips:23_63)
                    79000      41323        F         !presenceOf(copy_bus_parking:32_19)
                    80000      41323                   presenceOf(copy_lane_parking:2_270)
 ! Time = 186.10s, Average fail depth = 463, Memory usage = 1.8 GB
 !               Branches  Non-fixed            Branch decision
                    81000      38551                   presenceOf(copy_lane_parking:4_344)
                    82000      38557        F          presenceOf(copy_bus_parking:48_371)
                    83000      38551                  !presenceOf(copy_trips:9_374)
                    84000      38560                   presenceOf(copy_lane_parking:8_87)
                    85000      35588                   presenceOf(copy_lane_parking:0_344)
                    86000      35460                   presenceOf(copy_lane_parking:7_241)
                    87000      54908                   presenceOf(copy_lane_parking:1_33)
                    88000      55391        F          presenceOf(copy_bus_parking:12_0)
                    89000      55179                  !presenceOf(copy_bus_parking:12_0)
                    90000      55176                   presenceOf(copy_trips:14_5)
                    91000      29391                   presenceOf(copy_trips:44_61)
                    92000      24576                   presenceOf(copy_lane_parking:5_104)
                    93000      38572                   presenceOf(copy_lane_parking:7_159)
                    94000      38566        F          presenceOf(copy_trips:41_369)
                    95000      38563        F          presenceOf(copy_trips:13_374)
                    96000      38560        F          presenceOf(copy_trips:3_374)
                    97000      38563                   presenceOf(copy_trips:6_374)
                    98000      38563                   presenceOf(copy_lane_parking:7_216)
                    99000      38554                   presenceOf(copy_trips:42_69)
                     100k      39133                   presenceOf(copy_bus_parking:40_252)
 ! Time = 227.50s, Average fail depth = 464, Memory usage = 1.8 GB
 !               Branches  Non-fixed            Branch decision
                     101k      38566                  !presenceOf(copy_trips:35_374)
                     102k      38566                  !presenceOf(copy_trips:15_374)
                     103k      38563                  !presenceOf(copy_trips:22_374)
                     104k      38560                  !presenceOf(copy_trips:23_374)
                     105k      38557                  !presenceOf(copy_trips:20_374)
                     106k      38566                  !presenceOf(copy_trips:10_374)
                     107k      38560                  !presenceOf(copy_trips:7_374)
                     108k      38563                  !presenceOf(copy_trips:41_374)
                     109k      38557        F          presenceOf(copy_trips:13_369)
                     110k      38560        F          presenceOf(copy_trips:13_369)
                     111k      38557        F          presenceOf(copy_trips:13_369)
                     112k      38557                  !presenceOf(copy_trips:6_374)
                     113k      38560                   presenceOf(copy_lane_parking:9_62)
                     114k      20650                   presenceOf(copy_lane_parking:6_29)
                     115k      38569                   presenceOf(copy_lane_parking:2_296)
                     116k      38539                   presenceOf(copy_bus_parking:44_277)
                     117k      38560        F          presenceOf(copy_bus_parking:36_0)
                     118k      54798            245 != endOf(start_parking:34)
                     119k      41338                  !presenceOf(copy_bus_parking:15_19)
                     120k      41727        F          presenceOf(copy_bus_parking:4_19)
 ! Time = 255.25s, Average fail depth = 468, Memory usage = 1.8 GB
 !               Branches  Non-fixed            Branch decision
                     121k      38560        F          presenceOf(copy_bus_parking:22_371)
                     122k      20645        F          presenceOf(copy_bus_parking:10_252)
                     123k      20645                   presenceOf(copy_trips:19_344)
                     124k      38563                  !presenceOf(copy_bus_parking:35_14)
                     125k      41184                  !presenceOf(copy_bus_parking:12_19)
                     126k      42028                  !presenceOf(copy_bus_parking:14_19)
                     127k      42031                  !presenceOf(copy_bus_parking:18_19)
                     128k      42034                   presenceOf(copy_lane_parking:8_237)
                     129k      21121        F          presenceOf(copy_trips:10_274)
                     130k      21121                  !presenceOf(copy_trips:39_274)
                     131k      21121        F          presenceOf(copy_trips:9_274)
                     132k      21121        F          presenceOf(copy_trips:46_274)
                     133k      21121        F          presenceOf(copy_trips:29_274)
                     134k      21121        F          presenceOf(copy_trips:49_274)
                     135k      21121        F          presenceOf(copy_trips:28_274)
                     136k      21121        F          presenceOf(copy_trips:48_274)
                     137k      21121        F          presenceOf(copy_trips:40_274)
                     138k      21121        F          presenceOf(copy_trips:15_274)
                     139k      21121                  !presenceOf(copy_trips:21_274)
                     140k      21121        F          presenceOf(copy_trips:23_274)
 ! Time = 278.12s, Average fail depth = 486, Memory usage = 1.8 GB
 !               Branches  Non-fixed            Branch decision
                     141k      21121        F          presenceOf(copy_trips:35_274)
                     142k      21121                   presenceOf(copy_bus_parking:16_1)
                     143k      38560                   presenceOf(copy_trips:46_371)
                     144k      38557        F          presenceOf(copy_trips:9_371)
                     145k      38566                   presenceOf(copy_trips:6_371)
                     146k      38557                   presenceOf(copy_trips:8_371)
                     147k      38569        F         !presenceOf(copy_trips:39_374)
                     148k      38563        F          presenceOf(copy_bus_parking:35_371)
                     149k      38551                   presenceOf(copy_bus_parking:14_371)
                     150k      38560                   presenceOf(copy_trips:9_59)
                     151k      45433                   presenceOf(copy_lane_parking:0_291)
                     152k      41136        F          presenceOf(copy_trips:32_0)
                     153k      20641        F         !presenceOf(copy_trips:7_252)
                     154k      20641        F          presenceOf(copy_trips:27_28)
                     155k      24768        F          presenceOf(copy_trips:25_371)
                     156k      38557                   presenceOf(copy_lane_parking:0_315)
                     157k      38563        F          presenceOf(copy_trips:15_369)
                     158k      38563        F          presenceOf(copy_trips:42_14)
                     159k      40944        F          presenceOf(copy_trips:18_14)
                     160k      40923        F          presenceOf(copy_trips:40_14)
 ! Time = 317.42s, Average fail depth = 483, Memory usage = 1.8 GB
 !               Branches  Non-fixed            Branch decision
                     161k      40869                   presenceOf(copy_lane_parking:9_359)
                     162k      24753                   presenceOf(copy_lane_parking:3_46)
                     163k      38542                   presenceOf(copy_lane_parking:2_243)
                     164k      21108                  !presenceOf(copy_trips:14_274)
                     165k      21108                   presenceOf(copy_bus_parking:33_252)
                     166k      38533        F          presenceOf(copy_trips:49_371)
                     167k      38542        F         !presenceOf(copy_bus_parking:23_369)
                     168k      38551        F          presenceOf(copy_bus_parking:6_369)
                     169k      38551                  !presenceOf(copy_trips:15_374)
                     170k      38560        F          presenceOf(copy_trips:28_371)
                     171k      38533        F         !presenceOf(copy_bus_parking:23_369)
                     172k      38530        F          presenceOf(copy_bus_parking:48_369)
                     173k      38533        F          presenceOf(copy_trips:48_371)
                     174k      38536                   presenceOf(copy_trips:12_371)
                     175k      38536        F          presenceOf(copy_trips:13_371)
                     176k      38536        F          presenceOf(copy_bus_parking:38_369)
                     177k      38542                   presenceOf(copy_bus_parking:45_369)
                     178k      38551                   presenceOf(copy_lane_parking:5_76)
                     179k      35847        F         !presenceOf(copy_trips:0_0)
                     180k      36952        F          presenceOf(copy_trips:21_1)
 ! Time = 346.13s, Average fail depth = 485, Memory usage = 1.8 GB
 !               Branches  Non-fixed            Branch decision
                     181k      36952                  !presenceOf(copy_trips:37_0)
                     182k      36952                  !presenceOf(copy_trips:2_0)
                     183k      36573                  !presenceOf(copy_trips:36_0)
                     184k      36573                  !presenceOf(copy_trips:37_0)
                     185k      36573        F          presenceOf(copy_trips:1_0)
                     186k      36573                   presenceOf(copy_trips:12_2)
                     187k      36573        F          presenceOf(copy_trips:46_1)
                     188k      36573        F          presenceOf(copy_trips:7_1)
                     189k      36573                  !presenceOf(copy_trips:6_0)
                     190k      36573                  !presenceOf(copy_trips:22_0)
                     191k      36573        F          presenceOf(copy_trips:7_1)
                     192k      36573                  !presenceOf(copy_trips:6_0)
                     193k      36575                  !presenceOf(copy_trips:22_0)
                     194k      36573                  !presenceOf(copy_trips:2_0)
                     195k      36573                  !presenceOf(copy_trips:11_0)
                     196k      36573                  !presenceOf(copy_trips:37_0)
                     197k      36573                  !presenceOf(copy_trips:1_0)
                     198k      36573                  !presenceOf(copy_trips:11_0)
                     199k      36573                  !presenceOf(copy_trips:22_0)
                     200k      36573        F          presenceOf(copy_trips:10_1)
 ! Time = 373.29s, Average fail depth = 488, Memory usage = 1.8 GB
 !               Branches  Non-fixed            Branch decision
                     201k      36573        F          presenceOf(copy_trips:46_1)
                     202k      36573                  !presenceOf(copy_trips:2_0)
                     203k      36181        F          presenceOf(copy_trips:46_1)
                     204k      36181        F          presenceOf(copy_trips:46_1)
                     205k      36181                  !presenceOf(copy_bus_parking:11_8)
                     206k      36182        F          presenceOf(copy_trips:2_0)
                     207k      36361        F          presenceOf(copy_trips:22_0)
                     208k      36361                  !presenceOf(copy_trips:13_1)
                     209k      36181        F          presenceOf(copy_trips:10_1)
                     210k      36181        F          presenceOf(copy_trips:21_0)
                     211k      36181                  !presenceOf(copy_bus_parking:12_8)
                     212k      36181                  !presenceOf(copy_trips:46_1)
                     213k      36181                   presenceOf(copy_bus_parking:14_8)
                     214k      36184        F          presenceOf(copy_trips:36_0)
                     215k      36361        F          presenceOf(copy_trips:21_0)
                     216k      36181        F          presenceOf(copy_trips:11_0)
                     217k      36181        F          presenceOf(copy_trips:46_1)
                     218k      36181        F          presenceOf(copy_trips:6_0)
                     219k      36361        F          presenceOf(copy_trips:21_0)
                     220k      36361        F          presenceOf(copy_trips:36_0)
 ! Time = 397.17s, Average fail depth = 491, Memory usage = 1.8 GB
 !               Branches  Non-fixed            Branch decision
                     221k      36184                  !presenceOf(copy_bus_parking:34_8)
                     222k      36184        F          presenceOf(copy_trips:1_0)
                     223k      36181                  !presenceOf(copy_bus_parking:26_8)
                     224k      36181        F          presenceOf(copy_trips:7_1)
                     225k      36181        F          presenceOf(copy_trips:2_0)
                     226k      36181        F          presenceOf(copy_trips:7_1)
                     227k      36181        F          presenceOf(copy_trips:46_1)
                     228k      36181                  !presenceOf(copy_trips:10_1)
                     229k      36182        F          presenceOf(copy_trips:46_1)
                     230k      36182                   presenceOf(copy_bus_parking:45_35)
                     231k      43129        F          presenceOf(copy_trips:19_316)
                     232k      39906        F          presenceOf(copy_bus_parking:0_307)
                     233k      39906                  !presenceOf(copy_bus_parking:38_281)
                     234k      39906                  !presenceOf(copy_bus_parking:8_281)
                     235k      39906        F          presenceOf(copy_bus_parking:31_307)
                     236k      39906        F          presenceOf(copy_bus_parking:1_307)
                     237k      39906        F          presenceOf(copy_bus_parking:3_307)
                     238k      39906        F          presenceOf(copy_bus_parking:24_307)
                     239k      39906                  !presenceOf(copy_bus_parking:29_307)
                     240k      39906        F          presenceOf(copy_bus_parking:30_307)
 ! Time = 424.63s, Average fail depth = 492, Memory usage = 1.8 GB
 !               Branches  Non-fixed            Branch decision
                     241k      39906        F          presenceOf(copy_bus_parking:14_271)
                     242k      39906        F          presenceOf(copy_bus_parking:18_271)
                     243k      39906        F          presenceOf(copy_bus_parking:10_307)
                     244k      39906                   presenceOf(copy_lane_parking:4_30)
                     245k      20634                   presenceOf(copy_lane_parking:5_84)
                     246k      38575                   presenceOf(copy_lane_parking:4_147)
                     247k      25519                   presenceOf(copy_lane_parking:3_206)
                     248k      33611                   presenceOf(copy_lane_parking:3_149)
                     249k      20867                  !presenceOf(copy_bus_parking:23_270)
                     250k      20867        F          presenceOf(copy_trips:8_274)
                     251k      20867        F          presenceOf(copy_trips:1_274)
                     252k      20867                   presenceOf(copy_lane_parking:2_54)
                     253k      20630                   presenceOf(copy_lane_parking:6_31)
                     254k      38557                   presenceOf(copy_lane_parking:2_318)
                     255k      21118                   presenceOf(copy_trips:37_29)
                     256k      42708                   presenceOf(copy_lane_parking:8_68)
                     257k      24527                  !presenceOf(copy_bus_parking:17_59)
                     258k      24603                  !presenceOf(copy_bus_parking:5_369)
                     259k      38575                  !presenceOf(copy_bus_parking:33_369)
                     260k      38578                  !presenceOf(copy_bus_parking:46_369)
 ! Time = 461.59s, Average fail depth = 494, Memory usage = 1.8 GB
 !               Branches  Non-fixed            Branch decision
                     261k      38578                   presenceOf(copy_lane_parking:5_0)
                     262k      20621                  !presenceOf(copy_trips:26_13)
                     263k      38548                  !presenceOf(copy_bus_parking:46_369)
                     264k      25323        F          presenceOf(copy_bus_parking:12_36)
                     265k      25323                  !presenceOf(copy_trips:7_33)
                     266k      24738                  !presenceOf(copy_trips:38_28)
                     267k      24738                  !presenceOf(copy_bus_parking:48_27)
                     268k      41385                   presenceOf(copy_lane_parking:4_52)
                     269k      43629                  !presenceOf(copy_trips:31_0)
                     270k      38578                   presenceOf(copy_bus_parking:37_371)
                     271k      38578        F          presenceOf(copy_bus_parking:43_14)
                     272k      42131                   presenceOf(copy_trips:46_66)
                     273k      41049                   presenceOf(copy_lane_parking:9_6)
                     274k      40883                  !presenceOf(copy_trips:28_52)
                     275k      40886        F          presenceOf(copy_trips:44_23)
                     276k      40826                  !presenceOf(copy_trips:28_63)
                     277k      32776                   presenceOf(copy_bus_parking:26_96)
                     278k      25329                   presenceOf(copy_lane_parking:1_350)
                     279k      30619                   presenceOf(copy_lane_parking:0_62)
                     280k      41882                   presenceOf(copy_lane_parking:5_368)
 ! Time = 507.80s, Average fail depth = 493, Memory usage = 1.8 GB
 !               Branches  Non-fixed            Branch decision
                     281k      21121                   presenceOf(copy_lane_parking:5_58)
                     282k      38563                   presenceOf(copy_lane_parking:9_133)
                     283k      38581                   presenceOf(copy_lane_parking:5_18)
                     284k      41356        F          presenceOf(copy_bus_parking:19_28)
                     285k      38566                  !presenceOf(copy_bus_parking:9_371)
                     286k      38557                  !presenceOf(copy_bus_parking:13_371)
                     287k      38557                  !presenceOf(copy_bus_parking:33_371)
                     288k      38563                   presenceOf(copy_lane_parking:3_87)
                     289k      49195        F         !presenceOf(copy_bus_parking:2_3)
                     290k      49198                  !presenceOf(copy_trips:38_40)
                     291k      49153        F         !presenceOf(copy_trips:19_40)
                     292k      38554                  !presenceOf(copy_bus_parking:13_374)
                     293k      38554                  !presenceOf(copy_bus_parking:7_374)
                     294k      38557        F          presenceOf(copy_bus_parking:39_369)
                     295k      38554                  !presenceOf(copy_bus_parking:12_374)
                     296k      38560                  !presenceOf(copy_bus_parking:46_374)
                     297k      38557                  !presenceOf(copy_bus_parking:19_374)
                     298k      38554        F          presenceOf(copy_bus_parking:22_371)
                     299k      38554        F         !presenceOf(copy_bus_parking:10_374)
                     300k      38554        F          presenceOf(copy_bus_parking:39_369)
 ! Time = 536.89s, Average fail depth = 493, Memory usage = 1.8 GB
 !               Branches  Non-fixed            Branch decision
                     301k      38554        F          presenceOf(copy_bus_parking:39_369)
                     302k      38554                  !presenceOf(copy_bus_parking:21_374)
                     303k      38551                  !presenceOf(copy_bus_parking:32_374)
                     304k      38551                  !presenceOf(copy_bus_parking:26_374)
                     305k      38554                   presenceOf(copy_lane_parking:7_169)
                     306k      38557                   presenceOf(copy_lane_parking:6_69)
                     307k      38572                  !presenceOf(copy_trips:0_371)
                     308k      38566                  !presenceOf(copy_trips:27_371)
                     309k      38563                  !presenceOf(copy_bus_parking:15_369)
                     310k      38563                  !presenceOf(copy_bus_parking:45_369)
                     311k      38569                  !presenceOf(copy_trips:18_371)
                     312k      38569                  !presenceOf(copy_trips:35_371)
                     313k      38566                  !presenceOf(copy_trips:23_371)
                     314k      38566        F          presenceOf(copy_trips:42_374)
                     315k      38563                  !presenceOf(copy_trips:7_371)
                     316k      38572                  !presenceOf(copy_trips:25_368)
                     317k      38566                  !presenceOf(copy_bus_parking:2_369)
                     318k      38563                  !presenceOf(copy_trips:41_371)
                     319k      38566                   presenceOf(copy_lane_parking:1_309)
                     320k      24396                   presenceOf(copy_lane_parking:4_196)
 ! Time = 559.09s, Average fail depth = 494, Memory usage = 1.8 GB
 !               Branches  Non-fixed            Branch decision
                     321k      40614                   presenceOf(copy_lane_parking:9_126)
                     322k      24800                   presenceOf(copy_lane_parking:0_169)
                     323k      55802                   presenceOf(copy_lane_parking:4_12)
                     324k      38545                   presenceOf(copy_lane_parking:5_230)
                     325k      22693                   presenceOf(copy_lane_parking:0_183)
                     326k      20636        F          presenceOf(copy_trips:2_252)
                     327k      20636                   presenceOf(copy_trips:42_8)
                     328k      49285                  !presenceOf(copy_trips:26_2)
                     329k      49333        F          presenceOf(copy_trips:10_2)
                     330k      49288        F         !presenceOf(copy_trips:26_2)
                     331k      49258                  !presenceOf(copy_bus_parking:23_5)
                     332k      49318        F          presenceOf(copy_bus_parking:45_5)
                     333k      49285        F          presenceOf(copy_bus_parking:4_5)
                     334k      49258                   presenceOf(copy_trips:6_8)
                     335k      49421        F         !presenceOf(copy_trips:21_2)
                     336k      49431        F          presenceOf(copy_trips:21_2)
                     337k      49394                  !presenceOf(copy_trips:18_35)
                     338k      49394        F         !presenceOf(copy_trips:21_2)
                     339k      49391        F          presenceOf(copy_bus_parking:2_5)
                     340k      49404        F          presenceOf(copy_trips:16_8)
 ! Time = 588.85s, Average fail depth = 490, Memory usage = 1.8 GB
 !               Branches  Non-fixed            Branch decision
                     341k      49366        F          presenceOf(copy_trips:20_8)
                     342k      49394                  !presenceOf(copy_trips:2_35)
                     343k      49394        F          presenceOf(copy_bus_parking:5_5)
                     344k      49393        F          presenceOf(copy_bus_parking:45_5)
                     345k      49287        F         !presenceOf(copy_trips:10_2)
                     346k      49282                   presenceOf(copy_trips:35_8)
                     347k      49263        F          presenceOf(copy_bus_parking:10_5)
                     348k      49261                  !presenceOf(copy_trips:35_2)
                     349k      49288                  !presenceOf(copy_bus_parking:20_5)
                     350k      49273        F         !presenceOf(copy_trips:21_2)
                     351k      49307                   presenceOf(copy_trips:32_8)
                     352k      49195        F          presenceOf(copy_trips:21_2)
                     353k      49273                   presenceOf(copy_bus_parking:13_5)
                     354k      49276                  !presenceOf(copy_trips:21_2)
                     355k      49195        F         !presenceOf(copy_trips:21_2)
                     356k      49285                  !presenceOf(copy_trips:6_8)
                     357k      49372                   presenceOf(copy_trips:15_8)
                     358k      49325        F          presenceOf(copy_trips:10_2)
                     359k      49362        F          presenceOf(copy_bus_parking:20_5)
                     360k      49266        F          presenceOf(copy_trips:30_8)
 ! Time = 607.91s, Average fail depth = 485, Memory usage = 1.8 GB
 !               Branches  Non-fixed            Branch decision
                     361k      49235                  !presenceOf(copy_trips:21_2)
                     362k      49232                   presenceOf(copy_bus_parking:26_5)
                     363k      49235                  !presenceOf(copy_bus_parking:11_15)
                     364k      49235        F          presenceOf(copy_bus_parking:20_5)
                     365k      49323        F         !presenceOf(copy_trips:21_2)
                     366k      49232        F         !presenceOf(copy_trips:21_2)
                     367k      49325        F          presenceOf(copy_bus_parking:3_5)
                     368k      49325        F          presenceOf(copy_bus_parking:3_5)
                     369k      49298                  !presenceOf(copy_trips:23_35)
                     370k      49235                  !presenceOf(copy_trips:6_35)
                     371k      49297        F          presenceOf(copy_trips:13_8)
                     372k      49309        F          presenceOf(copy_bus_parking:30_5)
                     373k      49324                  !presenceOf(copy_trips:21_2)
                     374k      49219        F          presenceOf(copy_bus_parking:3_5)
                     375k      49267        F          presenceOf(copy_trips:4_8)
                     376k      49235                  !presenceOf(copy_trips:13_35)
                     377k      49307                  !presenceOf(copy_trips:20_35)
                     378k      49232        F          presenceOf(copy_trips:16_9)
                     379k      43068           1007  = startOf(charge:0_61)
                     380k      27233                  !presenceOf(copy_trips:3_212)
 ! Time = 630.85s, Average fail depth = 481, Memory usage = 1.8 GB
 !               Branches  Non-fixed            Branch decision
                     381k      13961        F          presenceOf(copy_trips:11_279)
                     382k        470        F          presenceOf(copy_trips:39_374)
 *                   382k  632.63s                   -
 ! ----------------------------------------------------------------------------
 ! Search completed, 1 solution found.
 ! ----------------------------------------------------------------------------
 ! Number of branches     : 382171
 ! Number of fails        : 154491
 ! Total memory usage     : 2.0 GB (2.0 GB CP Optimizer + 0.0 GB Concert)
 ! Time spent in solve    : 632.66s (625.68s engine + 6.98s extraction)
 ! Search speed (br. / s) : 610.8
 ! ----------------------------------------------------------------------------
